\ Model MILP2
\ LP format - for model browsing. Use MPS format to capture full model detail.
Minimize
  16 x(0)(0) + 13 x(1)(1) + 12 x(2)(2) + 11 x(3)(3) + 11 x(4)(4)
   + 10 x(5)(5) + 9 x(6)(6) + 9 x(7)(7) + 7 x(8)(8) + 5 x(9)(9)
Subject To
 constr(0): x(0)(0) = 1
 constr(1): x(0)(1) + x(1)(1) = 1
 constr(2): x(0)(2) + x(1)(2) + x(2)(2) = 1
 constr(3): x(0)(3) + x(1)(3) + x(2)(3) + x(3)(3) = 1
 constr(4): x(0)(4) + x(1)(4) + x(2)(4) + x(3)(4) + x(4)(4) = 1
 constr(5): x(0)(5) + x(1)(5) + x(2)(5) + x(3)(5) + x(4)(5) + x(5)(5) = 1
 constr(6): x(0)(6) + x(1)(6) + x(2)(6) + x(3)(6) + x(4)(6) + x(5)(6)
   + x(6)(6) = 1
 constr(7): x(0)(7) + x(1)(7) + x(2)(7) + x(3)(7) + x(4)(7) + x(5)(7)
   + x(6)(7) + x(7)(7) = 1
 constr(8): x(0)(8) + x(1)(8) + x(2)(8) + x(3)(8) + x(4)(8) + x(5)(8)
   + x(6)(8) + x(7)(8) + x(8)(8) = 1
 constr(9): x(0)(9) + x(1)(9) + x(2)(9) + x(3)(9) + x(4)(9) + x(5)(9)
   + x(6)(9) + x(7)(9) + x(8)(9) + x(9)(9) = 1
 constr(10): - 8 x(0)(0) + 3 x(0)(1) + 3 x(0)(2) + 4 x(0)(3) + 2 x(0)(4)
   + 5 x(0)(5) + 2 x(0)(6) + 2 x(0)(7) + 3 x(0)(8) + 5 x(0)(9) <= 0
 constr(11): - 7 x(1)(1) + 3 x(1)(2) + 4 x(1)(3) + 2 x(1)(4) + 5 x(1)(5)
   + 2 x(1)(6) + 2 x(1)(7) + 3 x(1)(8) + 5 x(1)(9) <= 0
 constr(12): - 7 x(2)(2) + 4 x(2)(3) + 2 x(2)(4) + 5 x(2)(5) + 2 x(2)(6)
   + 2 x(2)(7) + 3 x(2)(8) + 5 x(2)(9) <= 0
 constr(13): - 6 x(3)(3) + 2 x(3)(4) + 5 x(3)(5) + 2 x(3)(6) + 2 x(3)(7)
   + 3 x(3)(8) + 5 x(3)(9) <= 0
 constr(14): - 8 x(4)(4) + 5 x(4)(5) + 2 x(4)(6) + 2 x(4)(7) + 3 x(4)(8)
   + 5 x(4)(9) <= 0
 constr(15): - 5 x(5)(5) + 2 x(5)(6) + 2 x(5)(7) + 3 x(5)(8) + 5 x(5)(9)
   <= 0
 constr(16): - 8 x(6)(6) + 2 x(6)(7) + 3 x(6)(8) + 5 x(6)(9) <= 0
 constr(17): - 8 x(7)(7) + 3 x(7)(8) + 5 x(7)(9) <= 0
 constr(18): - 7 x(8)(8) + 5 x(8)(9) <= 0
 constr(19): - x(0)(0) <= 0
 constr(20): x(1)(0) - x(1)(1) <= 0
 constr(21): x(2)(0) - x(2)(2) <= 0
 constr(22): x(3)(0) - x(3)(3) <= 0
 constr(23): x(4)(0) - x(4)(4) <= 0
 constr(24): x(5)(0) - x(5)(5) <= 0
 constr(25): x(6)(0) - x(6)(6) <= 0
 constr(26): x(7)(0) - x(7)(7) <= 0
 constr(27): x(8)(0) - x(8)(8) <= 0
 constr(28): x(9)(0) - x(9)(9) <= 0
 constr(29): - x(0)(0) + x(0)(1) <= 0
 constr(30): - x(1)(1) <= 0
 constr(31): x(2)(1) - x(2)(2) <= 0
 constr(32): x(3)(1) - x(3)(3) <= 0
 constr(33): x(4)(1) - x(4)(4) <= 0
 constr(34): x(5)(1) - x(5)(5) <= 0
 constr(35): x(6)(1) - x(6)(6) <= 0
 constr(36): x(7)(1) - x(7)(7) <= 0
 constr(37): x(8)(1) - x(8)(8) <= 0
 constr(38): x(9)(1) - x(9)(9) <= 0
 constr(39): - x(0)(0) + x(0)(2) <= 0
 constr(40): - x(1)(1) + x(1)(2) <= 0
 constr(41): - x(2)(2) <= 0
 constr(42): x(3)(2) - x(3)(3) <= 0
 constr(43): x(4)(2) - x(4)(4) <= 0
 constr(44): x(5)(2) - x(5)(5) <= 0
 constr(45): x(6)(2) - x(6)(6) <= 0
 constr(46): x(7)(2) - x(7)(7) <= 0
 constr(47): x(8)(2) - x(8)(8) <= 0
 constr(48): x(9)(2) - x(9)(9) <= 0
 constr(49): - x(0)(0) + x(0)(3) <= 0
 constr(50): - x(1)(1) + x(1)(3) <= 0
 constr(51): - x(2)(2) + x(2)(3) <= 0
 constr(52): - x(3)(3) <= 0
 constr(53): x(4)(3) - x(4)(4) <= 0
 constr(54): x(5)(3) - x(5)(5) <= 0
 constr(55): x(6)(3) - x(6)(6) <= 0
 constr(56): x(7)(3) - x(7)(7) <= 0
 constr(57): x(8)(3) - x(8)(8) <= 0
 constr(58): x(9)(3) - x(9)(9) <= 0
 constr(59): - x(0)(0) + x(0)(4) <= 0
 constr(60): - x(1)(1) + x(1)(4) <= 0
 constr(61): - x(2)(2) + x(2)(4) <= 0
 constr(62): - x(3)(3) + x(3)(4) <= 0
 constr(63): - x(4)(4) <= 0
 constr(64): x(5)(4) - x(5)(5) <= 0
 constr(65): x(6)(4) - x(6)(6) <= 0
 constr(66): x(7)(4) - x(7)(7) <= 0
 constr(67): x(8)(4) - x(8)(8) <= 0
 constr(68): x(9)(4) - x(9)(9) <= 0
 constr(69): - x(0)(0) + x(0)(5) <= 0
 constr(70): - x(1)(1) + x(1)(5) <= 0
 constr(71): - x(2)(2) + x(2)(5) <= 0
 constr(72): - x(3)(3) + x(3)(5) <= 0
 constr(73): - x(4)(4) + x(4)(5) <= 0
 constr(74): - x(5)(5) <= 0
 constr(75): x(6)(5) - x(6)(6) <= 0
 constr(76): x(7)(5) - x(7)(7) <= 0
 constr(77): x(8)(5) - x(8)(8) <= 0
 constr(78): x(9)(5) - x(9)(9) <= 0
 constr(79): - x(0)(0) + x(0)(6) <= 0
 constr(80): - x(1)(1) + x(1)(6) <= 0
 constr(81): - x(2)(2) + x(2)(6) <= 0
 constr(82): - x(3)(3) + x(3)(6) <= 0
 constr(83): - x(4)(4) + x(4)(6) <= 0
 constr(84): - x(5)(5) + x(5)(6) <= 0
 constr(85): - x(6)(6) <= 0
 constr(86): x(7)(6) - x(7)(7) <= 0
 constr(87): x(8)(6) - x(8)(8) <= 0
 constr(88): x(9)(6) - x(9)(9) <= 0
 constr(89): - x(0)(0) + x(0)(7) <= 0
 constr(90): - x(1)(1) + x(1)(7) <= 0
 constr(91): - x(2)(2) + x(2)(7) <= 0
 constr(92): - x(3)(3) + x(3)(7) <= 0
 constr(93): - x(4)(4) + x(4)(7) <= 0
 constr(94): - x(5)(5) + x(5)(7) <= 0
 constr(95): - x(6)(6) + x(6)(7) <= 0
 constr(96): - x(7)(7) <= 0
 constr(97): x(8)(7) - x(8)(8) <= 0
 constr(98): x(9)(7) - x(9)(9) <= 0
 constr(99): - x(0)(0) + x(0)(8) <= 0
 constr(100): - x(1)(1) + x(1)(8) <= 0
 constr(101): - x(2)(2) + x(2)(8) <= 0
 constr(102): - x(3)(3) + x(3)(8) <= 0
 constr(103): - x(4)(4) + x(4)(8) <= 0
 constr(104): - x(5)(5) + x(5)(8) <= 0
 constr(105): - x(6)(6) + x(6)(8) <= 0
 constr(106): - x(7)(7) + x(7)(8) <= 0
 constr(107): - x(8)(8) <= 0
 constr(108): x(9)(8) - x(9)(9) <= 0
 constr(109): - x(0)(0) + x(0)(9) <= 0
 constr(110): - x(1)(1) + x(1)(9) <= 0
 constr(111): - x(2)(2) + x(2)(9) <= 0
 constr(112): - x(3)(3) + x(3)(9) <= 0
 constr(113): - x(4)(4) + x(4)(9) <= 0
 constr(114): - x(5)(5) + x(5)(9) <= 0
 constr(115): - x(6)(6) + x(6)(9) <= 0
 constr(116): - x(7)(7) + x(7)(9) <= 0
 constr(117): - x(8)(8) + x(8)(9) <= 0
 constr(118): - x(9)(9) <= 0
Bounds
Binaries
 x(0)(0) x(1)(0) x(2)(0) x(3)(0) x(4)(0) x(5)(0) x(6)(0) x(7)(0) x(8)(0)
 x(9)(0) x(0)(1) x(1)(1) x(2)(1) x(3)(1) x(4)(1) x(5)(1) x(6)(1) x(7)(1)
 x(8)(1) x(9)(1) x(0)(2) x(1)(2) x(2)(2) x(3)(2) x(4)(2) x(5)(2) x(6)(2)
 x(7)(2) x(8)(2) x(9)(2) x(0)(3) x(1)(3) x(2)(3) x(3)(3) x(4)(3) x(5)(3)
 x(6)(3) x(7)(3) x(8)(3) x(9)(3) x(0)(4) x(1)(4) x(2)(4) x(3)(4) x(4)(4)
 x(5)(4) x(6)(4) x(7)(4) x(8)(4) x(9)(4) x(0)(5) x(1)(5) x(2)(5) x(3)(5)
 x(4)(5) x(5)(5) x(6)(5) x(7)(5) x(8)(5) x(9)(5) x(0)(6) x(1)(6) x(2)(6)
 x(3)(6) x(4)(6) x(5)(6) x(6)(6) x(7)(6) x(8)(6) x(9)(6) x(0)(7) x(1)(7)
 x(2)(7) x(3)(7) x(4)(7) x(5)(7) x(6)(7) x(7)(7) x(8)(7) x(9)(7) x(0)(8)
 x(1)(8) x(2)(8) x(3)(8) x(4)(8) x(5)(8) x(6)(8) x(7)(8) x(8)(8) x(9)(8)
 x(0)(9) x(1)(9) x(2)(9) x(3)(9) x(4)(9) x(5)(9) x(6)(9) x(7)(9) x(8)(9)
 x(9)(9)
End